120 150

51
54
50
45
52
48
56
51
49
60
59
60
54
51
47
41
59
47
46
44
57
56
45
50
51
43
53
51
52
54
56
60
60
40
58
49
60
48
56
53
54
50
52
49
52
58
42
56
54
51
55
53
40
57
44
56
44
40
47
40
54
40
60
43
60
49
46
47
59
55
51
49
44
54
41
56
51
58
47
49
47
44
53
46
50
54
55
58
41
48
51
54
49
60
49
41
56
43
50
52
49
43
59
52
54
42
45
56
49
45
50
49
51
44
44
48
51
46
53
45